* ENCODING=ISO-8859-1
NAME          CPLEX
ROWS
 N  obj1    
 G  c1      
 G  c2      
 G  c3      
 G  c4      
 G  c5      
 G  c6      
 G  c7      
 G  c8      
 G  c9      
 G  c10     
 G  c11     
 G  c12     
 G  c13     
 G  c14     
 G  c15     
 G  c16     
 G  c17     
 G  c18     
 G  c19     
 G  c20     
 G  c21     
 G  c22     
 G  c23     
 G  c24     
 G  c25     
COLUMNS
    MARK0000  'MARKER'                 'INTORG'
    x1        obj1                            1
    x1        c2                            170
    x1        c16                           615
    x2        obj1                            1
    x2        c7                            185
    x2        c15                           488
    x2        c24                           256
    x3        obj1                            1
    x3        c10                           453
    x3        c11                           455
    x3        c19                           630
    x4        obj1                            1
    x4        c2                            582
    x4        c18                           782
    x4        c24                           851
    x5        obj1                            1
    x5        c8                            970
    x5        c25                           687
    x6        obj1                            1
    x6        c1                            212
    x6        c3                            534
    x6        c14                           831
    x7        obj1                            1
    x7        c8                            649
    x7        c11                           993
    x8        obj1                            1
    x8        c4                            843
    x8        c18                           624
    x8        c24                           219
    x9        obj1                            1
    x9        c1                            792
    x9        c9                            258
    x9        c23                           448
    x10       obj1                            1
    x10       c11                           910
    x10       c14                           628
    x10       c21                           511
    x10       c22                           480
    x10       c24                           365
    x11       obj1                            1
    x11       c9                            851
    x11       c12                           375
    x12       obj1                            1
    x12       c16                           329
    x13       obj1                            1
    x14       obj1                            1
    x14       c3                            877
    x14       c17                           870
    x14       c20                           974
    x15       obj1                            1
    x15       c4                            483
    x16       obj1                            1
    x16       c16                           167
    x16       c23                           194
    x17       obj1                            1
    x18       obj1                            1
    x18       c15                           269
    x19       obj1                            1
    x19       c8                            778
    x19       c20                           540
    x19       c21                           154
    x20       obj1                            1
    x20       c20                           594
    x20       c23                           497
    x21       obj1                            1
    x21       c8                            605
    x22       obj1                            1
    x22       c11                           423
    x22       c12                           586
    x22       c14                           302
    x22       c19                           631
    x23       obj1                            1
    x23       c5                            884
    x24       obj1                            1
    x25       obj1                            1
    x25       c23                           445
    x26       obj1                            1
    x26       c2                            877
    x26       c12                           374
    x26       c18                           295
    x27       obj1                            1
    x27       c25                           649
    x28       obj1                            1
    x28       c13                           683
    x28       c20                           738
    x28       c22                           827
    x29       obj1                            1
    x29       c2                            932
    x29       c10                           538
    x29       c17                           254
    x30       obj1                            1
    x30       c10                           569
    x31       obj1                            1
    x31       c19                           273
    x32       obj1                            1
    x32       c19                           551
    x32       c22                           237
    x33       obj1                            1
    x33       c8                            910
    x33       c9                            685
    x34       obj1                            1
    x34       c4                            625
    x34       c6                            673
    x34       c21                           343
    x35       obj1                            1
    x35       c1                            266
    x35       c6                            422
    x35       c15                           289
    x35       c17                           565
    x35       c18                           879
    x36       obj1                            1
    x36       c5                            163
    x36       c9                            215
    x36       c11                           795
    x36       c13                           298
    x36       c14                           827
    x37       obj1                            1
    x37       c5                            154
    x37       c8                            933
    x37       c10                           906
    x38       obj1                            1
    x38       c3                            776
    x38       c6                            582
    x39       obj1                            1
    x39       c1                            821
    x39       c4                            431
    x39       c7                            777
    x39       c11                           597
    x39       c18                           869
    x40       obj1                            1
    x40       c16                           793
    x40       c25                           422
    x41       obj1                            1
    x41       c2                            158
    x41       c19                           405
    x42       obj1                            1
    x42       c3                            575
    x42       c4                            496
    x42       c9                            192
    x42       c21                           574
    x43       obj1                            1
    x43       c8                            137
    x43       c13                           586
    x43       c14                           128
    x44       obj1                            1
    x44       c21                           207
    x45       obj1                            1
    x45       c4                            788
    x45       c9                            234
    x45       c12                           800
    x45       c14                           358
    x45       c22                           919
    x46       obj1                            1
    x46       c1                            321
    x46       c10                           203
    x46       c13                           435
    x46       c15                           739
    x46       c21                           743
    x47       obj1                            1
    x47       c7                            901
    x47       c13                           308
    x47       c14                           440
    x47       c19                           359
    x47       c23                           179
    x48       obj1                            1
    x48       c2                            444
    x48       c3                            166
    x48       c23                           744
    x49       obj1                            1
    x49       c2                            317
    x49       c4                            783
    x49       c18                           665
    x49       c19                           283
    x50       obj1                            1
    x50       c10                           397
    x50       c21                           427
    x50       c22                           589
    MARK0001  'MARKER'                 'INTEND'
RHS
    rhs       c1                           1206
    rhs       c2                           1740
    rhs       c3                           1464
    rhs       c4                           2225
    rhs       c5                            601
    rhs       c6                            839
    rhs       c7                            932
    rhs       c8                           2491
    rhs       c9                           1218
    rhs       c10                          1533
    rhs       c11                          2087
    rhs       c12                          1068
    rhs       c13                          1155
    rhs       c14                          1757
    rhs       c15                           893
    rhs       c16                           952
    rhs       c17                           845
    rhs       c18                          2057
    rhs       c19                          1566
    rhs       c20                          1423
    rhs       c21                          1480
    rhs       c22                          1526
    rhs       c23                          1254
    rhs       c24                           846
    rhs       c25                           879
BOUNDS
 LI bnd       x1        0
 LI bnd       x2        0
 LI bnd       x3        0
 LI bnd       x4        0
 LI bnd       x5        0
 LI bnd       x6        0
 LI bnd       x7        0
 LI bnd       x8        0
 LI bnd       x9        0
 LI bnd       x10       0
 LI bnd       x11       0
 LI bnd       x12       0
 LI bnd       x13       0
 LI bnd       x14       0
 LI bnd       x15       0
 LI bnd       x16       0
 LI bnd       x17       0
 LI bnd       x18       0
 LI bnd       x19       0
 LI bnd       x20       0
 LI bnd       x21       0
 LI bnd       x22       0
 LI bnd       x23       0
 LI bnd       x24       0
 LI bnd       x25       0
 LI bnd       x26       0
 LI bnd       x27       0
 LI bnd       x28       0
 LI bnd       x29       0
 LI bnd       x30       0
 LI bnd       x31       0
 LI bnd       x32       0
 LI bnd       x33       0
 LI bnd       x34       0
 LI bnd       x35       0
 LI bnd       x36       0
 LI bnd       x37       0
 LI bnd       x38       0
 LI bnd       x39       0
 LI bnd       x40       0
 LI bnd       x41       0
 LI bnd       x42       0
 LI bnd       x43       0
 LI bnd       x44       0
 LI bnd       x45       0
 LI bnd       x46       0
 LI bnd       x47       0
 LI bnd       x48       0
 LI bnd       x49       0
 LI bnd       x50       0
ENDATA
